Route #1: 75 68 2 62 28 61 22 64 42 43 1 73
Route #2: 74 21 47 36 69 71 60 70 20 37 5 29 48 30
Route #3: 4 45 27 15 57 13 54 19 8 46 52 34
Route #4: 67 44 3 24 49 23 56 41 63 16 33
Route #5: 32 50 18 55 25 9 39 72 31 10 58
Route #6: 38 65 66 11 59 14 53 35 7
Route #7: 6 51 17 40 12 26
Cost 736